
  32    4
  10   10   10   10

   0   0   0   0   0   8 2 3 4 5 6 7 8 9 
   4  10  10  10  10   3 12 11 10 
   2  10  10  10  10   3 12 11 10 
   7  10  10  10  10   3 12 11 10 
  10  10  10  10  10   3 12 11 10 
   5  10  10  10  10   3 12 11 10 
   7  10  10  10  10   3 12 11 10 
   3  10  10  10  10   2 11 10 
  10  10  10  10  10   1 10 
   6  10  10  10  10   3 15 14 13 
   7  10  10  10  10   3 15 14 13 
   9  10  10  10  10   3 15 14 13 
   6  10  10  10  10   4 19 18 17 16 
  10  10  10  10  10   4 19 18 17 16 
   4  10  10  10  10   2 19 16 
   4  10  10  10  10   2 21 20 
   3  10  10  10  10   2 21 20 
   9  10  10  10  10   2 21 20 
   7  10  10  10  10   1 20 
   4  10  10  10  10  10 31 30 29 28 27 26 25 24 23 22 
   7  10  10  10  10   6 27 26 25 24 23 22 
   6  10  10  10  10   1 32
   1  10  10  10  10   1 32
   4  10  10  10  10   1 32
   1  10  10  10  10   1 32
   9  10  10  10  10   1 32
   5  10  10  10  10   1 32
   1  10  10  10  10   1 32
   7  10  10  10  10   1 32
  10  10  10  10  10   1 32
   8  10  10  10  10   1 32
   0   0   0   0   0   0 
